
List of user-set options:

                                    Name   Value                used
                           compl_inf_tol = 1                     yes
                         constr_viol_tol = 1                     yes
                            dual_inf_tol = 1000                  yes
                           linear_solver = ma97                  yes
                              ma86_small = 1e-30                  no
                                  ma86_u = 0.0001                 no
                              ma97_order = best                  yes
                              ma97_small = 1e-30                 yes
                            ma97_switch1 = at_start              yes
                            ma97_switch2 = od_hd_reuse           yes
                                  ma97_u = 1e-06                 yes
                               ma97_umax = 0.5                   yes
                                max_iter = 1000                  yes
                    max_refinement_steps = 20                    yes
                    min_refinement_steps = 5                     yes
                                 mu_init = 1e-06                 yes
           mu_superlinear_decrease_power = 1.25                  yes
                   nlp_scaling_min_value = 1e-08                 yes
                        option_file_name = Preset_Case_89_pf.opt  yes
                             output_file = ./tmp/Preset_Case_89_pf.output  yes
                      print_user_options = yes                   yes
                                     tol = 0.0001                yes
                   warm_start_bound_frac = 1e-20                 yes
                   warm_start_bound_push = 1e-20                 yes
                   warm_start_init_point = yes                   yes
              warm_start_mult_bound_push = 1e-20                 yes
                warm_start_mult_init_max = 1e+40                 yes
             warm_start_slack_bound_frac = 1e-20                 yes
             warm_start_slack_bound_push = 1e-20                 yes

******************************************************************************
This program contains Ipopt, a library for large-scale nonlinear optimization.
 Ipopt is released as open source code under the Eclipse Public License (EPL).
         For more information visit http://projects.coin-or.org/Ipopt
******************************************************************************

This is Ipopt version 3.12.10, running with linear solver ma97.

Number of nonzeros in equality constraint Jacobian...:   103066
Number of nonzeros in inequality constraint Jacobian.:      145
Number of nonzeros in Lagrangian Hessian.............:    39976

Total number of variables............................:    29160
                     variables with only lower bounds:    11314
                variables with lower and upper bounds:    14309
                     variables with only upper bounds:        0
Total number of equality constraints.................:    29077
Total number of inequality constraints...............:       21
        inequality constraints with only lower bounds:        0
   inequality constraints with lower and upper bounds:        0
        inequality constraints with only upper bounds:       21

iter    objective    inf_pr   inf_du lg(mu)  ||d||  lg(rg) alpha_du alpha_pr  ls
   0 -9.8288172e+03 1.15e+00 8.29e+03  -6.0 0.00e+00    -  0.00e+00 0.00e+00   0
   1 -9.8276475e+03 1.01e+00 7.27e+03  -6.0 6.27e+02    -  1.00e+00 1.22e-01h  2
   2 -9.8264760e+03 8.74e-01 6.28e+03  -6.0 5.61e+02    -  1.00e+00 1.37e-01h  1
   3r-9.8264760e+03 8.74e-01 1.00e+03  -0.6 0.00e+00    -  0.00e+00 7.76e-08R  2
   4r-9.8265502e+03 8.64e-01 1.98e+03  -0.6 8.01e+05    -  6.04e-05 1.13e-05f  1
   5r-9.8265492e+03 7.44e-01 1.07e+03  -0.6 1.45e+03    -  2.29e-05 1.53e-04f  1
   6 -9.8265491e+03 7.44e-01 7.84e+05  -6.0 2.74e+02    -  6.08e-01 3.28e-05h  1
   7 -9.8263940e+03 7.29e-01 4.53e+08  -6.0 4.93e+02    -  3.53e-05 2.04e-02h  1
   8 -9.8263940e+03 7.29e-01 4.53e+08  -6.0 1.34e+03    -  8.07e-06 1.44e-06h  1
   9 -9.8262879e+03 7.27e-01 4.51e+08  -6.0 5.03e+03    -  2.04e-06 2.62e-03h  6
iter    objective    inf_pr   inf_du lg(mu)  ||d||  lg(rg) alpha_du alpha_pr  ls
  10 -9.8261851e+03 7.25e-01 4.50e+08  -6.0 4.96e+03    -  2.42e-01 2.57e-03h  6
  11 -9.8260855e+03 7.23e-01 4.49e+08  -6.0 4.90e+03    -  5.37e-03 2.52e-03h  6
  12 -9.8259891e+03 7.21e-01 4.48e+08  -6.0 4.83e+03    -  3.25e-02 2.47e-03h  6
  13 -9.8258956e+03 7.20e-01 4.47e+08  -6.0 4.77e+03    -  1.41e-02 2.42e-03h  6
  14 -9.8258051e+03 7.18e-01 4.46e+08  -6.0 4.72e+03    -  3.10e-01 2.38e-03h  6
  15 -9.8257174e+03 7.16e-01 4.45e+08  -6.0 4.66e+03    -  1.64e-02 2.33e-03h  6
  16 -9.8256324e+03 7.15e-01 4.44e+08  -6.0 4.61e+03    -  5.27e-02 2.28e-03h  6
  17 -9.8255501e+03 7.13e-01 4.43e+08  -6.0 4.56e+03    -  3.21e-02 2.23e-03h  6
  18 -9.8254704e+03 7.11e-01 4.42e+08  -6.0 4.51e+03    -  4.07e-02 2.18e-03h  6
  19 -9.8213529e+03 2.42e+00 4.12e+08  -6.0 4.44e+03    -  2.21e-06 6.87e-02w  1
iter    objective    inf_pr   inf_du lg(mu)  ||d||  lg(rg) alpha_du alpha_pr  ls
  20 -9.8196129e+03 2.42e+00 4.11e+08  -6.0 4.99e+05    -  9.93e-04 4.71e-04w  1
  21 -9.8131387e+03 1.79e+01 4.11e+08  -6.0 4.58e+05    -  1.53e-03 1.89e-03w  1
  22 -9.8253417e+03 7.10e-01 4.41e+08  -6.0 3.36e+05    -  2.21e-06 2.15e-03h  5
  23 -9.8252153e+03 7.08e-01 4.40e+08  -6.0 4.40e+03    -  6.91e-02 2.10e-03h  6
  24 -9.8251227e+03 7.08e-01 4.40e+08  -6.0 7.44e+03    -  1.91e-03 1.03e-03h  7
  25 -9.8250289e+03 7.07e-01 4.39e+08  -6.0 7.74e+03    -  5.66e-02 1.02e-03h  7
  26 -9.8249919e+03 7.07e-01 4.39e+08  -6.0 1.50e+04    -  2.02e-03 2.56e-04h  9
  27 -9.8249540e+03 7.07e-01 4.39e+08  -6.0 1.56e+04    -  4.81e-02 2.56e-04h  9
  28 -9.8249263e+03 7.06e-01 4.39e+08  -6.0 2.70e+04    -  1.42e-03 1.19e-04h 10
  29 -9.8249122e+03 7.06e-01 4.39e+08  -6.0 2.76e+04    -  1.74e-02 5.98e-05h 11
iter    objective    inf_pr   inf_du lg(mu)  ||d||  lg(rg) alpha_du alpha_pr  ls
  30 -9.8248977e+03 7.06e-01 4.39e+08  -6.0 3.42e+04    -  1.33e-03 5.14e-05h 11
  31 -9.8248831e+03 7.06e-01 4.39e+08  -6.0 3.48e+04    -  3.83e-02 5.04e-05h 11
  32 -9.8105806e+03 6.56e+01 4.23e+08  -6.0 5.17e+04    -  9.06e-04 3.48e-02w  1
  33 -9.8105806e+03 6.56e+01 4.23e+08  -6.0 4.24e+04    -  2.10e-02 1.35e-07w  1
  34 -9.8102711e+03 6.51e+01 4.21e+08  -6.0 3.74e+03    -  4.50e-02 6.99e-03w  1
  35 -9.8245104e+03 7.06e-01 4.38e+08  -6.0 3.64e+03    -  9.06e-04 9.06e-04s 17
  36r-9.8245104e+03 7.06e-01 1.00e+03  -0.7 0.00e+00    -  0.00e+00 0.00e+00R  1
  37r-9.8245103e+03 7.05e-01 1.00e+03  -0.7 9.93e+03    -  1.25e-06 1.52e-06f  1
  38r-9.8245103e+03 6.95e-01 1.00e+03  -0.7 3.43e+03    -  1.47e-05 1.59e-05f  1
  39r-9.8245100e+03 6.62e-01 1.97e+03  -0.7 1.70e+03    -  1.96e-04 5.15e-05f  1
iter    objective    inf_pr   inf_du lg(mu)  ||d||  lg(rg) alpha_du alpha_pr  ls
  40r-9.8245074e+03 5.77e-01 1.05e+03  -0.7 8.54e+02    -  2.43e-04 4.51e-04f  1
  41 -9.8245074e+03 5.77e-01 6.89e+04  -6.0 3.17e+01    -  4.89e-01 4.09e-05h  1
  42 -9.8244686e+03 5.77e-01 9.79e+05  -6.0 1.08e+04    -  3.51e-05 4.99e-04h  3
  43 -9.8244415e+03 5.77e-01 9.79e+05  -6.0 1.07e+04    -  1.51e-02 3.10e-04h  4
  44 -9.8243962e+03 5.76e-01 9.78e+05  -6.0 1.06e+04    -  7.55e-04 5.18e-04h  6
  45 -9.8243488e+03 5.76e-01 9.78e+05  -6.0 1.06e+04    -  3.34e-02 5.46e-04h  6
  46 -9.8243024e+03 5.76e-01 9.77e+05  -6.0 1.05e+04    -  1.86e-03 5.36e-04h  6
  47 -9.8242523e+03 5.76e-01 9.77e+05  -6.0 1.04e+04    -  4.04e-02 5.82e-04h  6
  48 -9.8242209e+03 5.75e-01 9.76e+05  -6.0 1.03e+04    -  3.00e-03 3.61e-04h  7
  49 -9.8241899e+03 5.75e-01 1.87e+06  -6.0 1.03e+04    -  1.12e-01 3.57e-04h  7
iter    objective    inf_pr   inf_du lg(mu)  ||d||  lg(rg) alpha_du alpha_pr  ls
  50 -9.8241511e+03 5.75e-01 1.99e+06  -6.0 1.01e+04    -  2.55e-03 3.56e-04h  7
  51 -9.8241116e+03 5.75e-01 3.28e+06  -6.0 1.01e+04    -  2.23e-02 3.52e-04h  7
  52 -9.8213376e+03 9.44e-01 1.81e+07  -6.0 9.92e+03    -  2.27e-03 1.85e-02w  1
  53 -9.8194475e+03 1.60e+00 2.25e+07  -6.0 3.91e+04    -  7.03e-03 5.40e-03w  1
  54 -9.8161121e+03 5.79e+00 2.24e+07  -6.0 4.00e+05    -  1.55e-03 1.12e-03w  1
  55 -9.8240683e+03 5.75e-01 3.51e+06  -6.0 3.41e+05    -  2.27e-03 2.89e-04h  6
  56 -9.8240265e+03 5.74e-01 4.81e+06  -6.0 1.04e+04    -  1.07e-02 2.66e-04h  7
  57 -9.8240058e+03 5.74e-01 5.21e+06  -6.0 1.53e+04    -  2.34e-03 1.08e-04h  8
  58 -9.8239831e+03 5.74e-01 7.51e+06  -6.0 1.68e+04    -  1.17e-02 1.12e-04h  8
  59 -9.8239661e+03 5.74e-01 8.00e+06  -6.0 2.52e+04    -  1.72e-03 6.49e-05h  9
iter    objective    inf_pr   inf_du lg(mu)  ||d||  lg(rg) alpha_du alpha_pr  ls
  60 -9.8239476e+03 5.74e-01 1.06e+07  -6.0 2.70e+04    -  8.19e-03 6.68e-05h  9
  61 -9.8239350e+03 5.74e-01 1.11e+07  -6.0 3.60e+04    -  1.43e-03 3.71e-05h 10
  62 -9.8239283e+03 5.74e-01 1.76e+07  -6.0 3.81e+04    -  1.47e-02 1.89e-05h 11
  63r-9.8239283e+03 5.74e-01 1.00e+03  -0.9 0.00e+00    -  0.00e+00 3.87e-07R 16
  64r-9.8239283e+03 5.74e-01 2.74e+03  -0.9 9.29e+02    -  5.87e-04 1.28e-05f  1
  65r-9.8239250e+03 5.73e-01 7.68e+03  -0.9 5.45e+02    -  2.16e-03 9.02e-04f  1
  66 -9.8239251e+03 5.73e-01 1.08e+07  -6.0 3.34e+01    -  4.55e-01 3.96e-05h  1
  67 -9.8239097e+03 5.73e-01 2.62e+07  -6.0 1.83e+04    -  4.11e-05 1.00e-04h  4
  68 -9.8238935e+03 5.73e-01 2.62e+07  -6.0 1.83e+04    -  1.19e-02 1.06e-04h  4
  69 -9.8238811e+03 5.73e-01 2.62e+07  -6.0 1.82e+04    -  2.51e-04 8.11e-05h  6
iter    objective    inf_pr   inf_du lg(mu)  ||d||  lg(rg) alpha_du alpha_pr  ls
  70 -9.8238675e+03 5.73e-01 2.62e+07  -6.0 1.82e+04    -  1.23e-02 8.89e-05h  6
  71 -9.8238536e+03 5.73e-01 2.62e+07  -6.0 1.81e+04    -  4.28e-04 8.94e-05h  8
  72 -9.8238399e+03 5.73e-01 2.62e+07  -6.0 1.80e+04    -  5.23e-02 8.89e-05h  8
  73 -9.8238242e+03 5.73e-01 2.62e+07  -6.0 1.79e+04    -  6.01e-04 8.91e-05h  8
  74 -9.8238084e+03 5.73e-01 2.62e+07  -6.0 1.78e+04    -  1.74e-02 8.87e-05h  8
  75 -9.8237905e+03 5.73e-01 2.62e+07  -6.0 1.75e+04    -  8.04e-04 7.79e-05h  8
  76 -9.8237738e+03 5.72e-01 2.62e+07  -6.0 1.74e+04    -  7.44e-03 7.12e-05h  8
  77 -9.8223900e+03 5.70e-01 2.60e+07  -6.0 2.11e+04    -  1.04e-03 4.70e-03w  1
  78 -9.8196807e+03 1.41e+00 2.58e+07  -6.0 2.95e+04    -  7.10e-03 8.03e-03w  1
  79 -9.8168521e+03 4.42e+00 2.58e+07  -6.0 3.74e+05    -  1.24e-03 1.01e-03w  1
iter    objective    inf_pr   inf_du lg(mu)  ||d||  lg(rg) alpha_du alpha_pr  ls
  80 -9.8237630e+03 5.72e-01 2.62e+07  -6.0 3.33e+05    -  1.04e-03 3.67e-05h  7
  81 -9.8237502e+03 5.72e-01 2.62e+07  -6.0 2.29e+04    -  4.93e-03 4.15e-05h  8
  82r-9.8237502e+03 5.72e-01 1.00e+03  -1.3 0.00e+00    -  0.00e+00 4.53e-07R 15
  83r-9.8237502e+03 5.72e-01 1.15e+04  -1.3 3.17e+02    -  7.13e-03 4.47e-05f  1
  84r-9.8237361e+03 5.55e-01 1.41e+04  -1.3 1.46e+02    -  1.14e-02 8.13e-03f  1
  85 -9.8237362e+03 5.55e-01 3.11e+03  -6.0 3.43e+01    -  4.04e-01 1.30e-04h  1
  86 -9.8237252e+03 5.55e-01 1.27e+05  -6.0 1.56e+04    -  1.27e-02 8.43e-05h  3
  87 -9.8237204e+03 5.55e-01 1.77e+05  -6.0 1.56e+04    -  4.46e-03 3.70e-05h  8
  88 -9.8237162e+03 5.55e-01 6.23e+05  -6.0 1.55e+04    -  3.62e-02 3.16e-05h  8
  89 -9.8237129e+03 5.55e-01 1.13e+06  -6.0 1.55e+04    -  2.06e-02 2.45e-05h 10
iter    objective    inf_pr   inf_du lg(mu)  ||d||  lg(rg) alpha_du alpha_pr  ls
  90 -9.8237091e+03 5.55e-01 2.72e+06  -6.0 1.54e+04    -  3.09e-02 2.46e-05h 10
  91r-9.8237091e+03 5.55e-01 1.00e+03  -2.2 0.00e+00    -  0.00e+00 3.60e-07R 15
  92r-9.8237091e+03 5.51e-01 1.83e+03  -2.2 2.16e+02    -  1.15e-02 3.18e-04f  1
  93r-9.8237091e+03 5.51e-01 9.99e+02  -2.3 0.00e+00    -  0.00e+00 3.59e-07R  2
  94r-9.8237091e+03 5.51e-01 9.99e+02  -2.3 2.29e+02    -  2.00e-03 7.47e-06f  1
  95r-9.8237085e+03 4.99e-01 9.93e+02  -2.3 1.95e+02    -  6.93e-03 3.00e-03f  1
  96 -9.8237095e+03 4.98e-01 2.33e+02  -6.0 3.51e+01    -  4.20e-01 1.80e-03h  1
  97 -9.8237071e+03 4.98e-01 5.41e+04  -6.0 1.05e+04    -  1.24e-02 2.80e-05h  2
  98 -9.8237032e+03 4.98e-01 1.63e+05  -6.0 1.10e+04    -  2.21e-02 4.26e-05h  9
  99 -9.8237010e+03 4.98e-01 3.41e+05  -6.0 1.10e+04    -  2.85e-02 2.45e-05h  9
iter    objective    inf_pr   inf_du lg(mu)  ||d||  lg(rg) alpha_du alpha_pr  ls
 100 -9.8236978e+03 4.98e-01 6.07e+05  -6.0 1.09e+04    -  2.55e-02 3.44e-05h 10
 101 -9.8236944e+03 4.98e-01 1.07e+06  -6.0 1.09e+04    -  2.28e-02 3.44e-05h 10
 102 -9.8236906e+03 4.98e-01 2.28e+06  -6.0 1.09e+04    -  2.88e-02 3.45e-05h 10
 103r-9.8236906e+03 4.98e-01 1.00e+03  -2.8 0.00e+00    -  0.00e+00 3.47e-07R 16
 104r-9.8236907e+03 4.71e-01 1.08e+03  -2.8 3.56e+02    -  5.05e-03 1.00e-03f  1
 105r-9.8236907e+03 4.71e-01 9.99e+02  -3.0 0.00e+00    -  0.00e+00 3.32e-07R  2
 106r-9.8236907e+03 4.68e-01 9.98e+02  -3.0 2.67e+02    -  6.03e-03 8.47e-05f  1
 107r-9.8236905e+03 3.72e-01 9.92e+02  -3.0 1.44e+02    -  6.58e-03 5.45e-03f  1
 108 -9.8236909e+03 3.72e-01 1.40e+01  -6.0 3.59e+01    -  4.47e-01 5.44e-04h  1
 109r-9.8236909e+03 3.72e-01 9.99e+02  -3.0 0.00e+00    -  0.00e+00 6.83e-08R  2
iter    objective    inf_pr   inf_du lg(mu)  ||d||  lg(rg) alpha_du alpha_pr  ls
 110r-9.8236908e+03 3.56e-01 9.83e+02  -3.0 1.54e+01    -  3.19e-02 1.00e-03f  1
 111 -9.8236915e+03 3.55e-01 3.97e+02  -6.0 3.45e+01    -  4.49e-01 1.13e-03h  1
 112 -9.8236899e+03 3.55e-01 2.26e+04  -6.0 7.99e+03    -  9.44e-03 2.36e-05h  4
 113 -9.8236876e+03 3.55e-01 1.64e+05  -6.0 8.24e+03    -  5.55e-02 3.47e-05h  9
 114 -9.8236859e+03 3.55e-01 2.04e+05  -6.0 8.24e+03    -  1.13e-02 2.38e-05h 10
 115 -9.8236834e+03 3.55e-01 7.75e+05  -6.0 8.24e+03    -  1.29e-01 3.74e-05h 10
 116 -9.8236816e+03 3.55e-01 9.59e+05  -6.0 8.21e+03    -  1.00e-02 2.26e-05h 11
 117 -9.8236797e+03 3.55e-01 2.18e+06  -6.0 8.20e+03    -  4.76e-02 2.27e-05h 11
 118r-9.8236797e+03 3.55e-01 1.00e+03  -3.6 0.00e+00    -  0.00e+00 2.79e-07R 17
 119r-9.8236798e+03 3.22e-01 9.94e+02  -3.6 3.45e+01    -  6.22e-03 1.00e-03f  1
iter    objective    inf_pr   inf_du lg(mu)  ||d||  lg(rg) alpha_du alpha_pr  ls
 120r-9.8236798e+03 3.22e-01 9.99e+02  -4.2 0.00e+00    -  0.00e+00 1.57e-07R  2
 121r-9.8236798e+03 3.01e-01 9.97e+02  -4.2 6.38e+01    -  2.71e-03 9.21e-04f  1
 122 -9.8236797e+03 3.00e-01 2.47e+04  -6.0 6.17e+01    -  4.76e-01 1.93e-05h  1
 123r-9.8236797e+03 3.00e-01 1.00e+03  -4.4 0.00e+00    -  0.00e+00 3.47e-07R 16
 124r-9.8236798e+03 2.64e-01 9.98e+02  -4.4 8.47e+01    -  4.16e-03 1.07e-03f  1
 125r-9.8236798e+03 3.19e-02 9.95e+02  -4.4 6.49e+01    -  1.67e-03 3.77e-03f  1
 126r-9.8236799e+03 2.57e-02 1.92e+03  -4.4 4.76e+01    -  1.95e-02 2.11e-03f  1
 127r-9.8236800e+03 9.35e-03 2.55e+03  -4.4 3.26e+01    -  3.11e-02 2.11e-02f  1
 128r-9.8236801e+03 9.44e-03 4.89e+03  -4.4 3.21e+01    -  5.60e-02 1.59e-02f  1
 129r-9.8236804e+03 9.41e-03 7.45e+03  -4.4 2.93e+01    -  8.89e-02 3.24e-02f  1
iter    objective    inf_pr   inf_du lg(mu)  ||d||  lg(rg) alpha_du alpha_pr  ls
 130r-9.8236806e+03 9.17e-03 1.05e+04  -4.4 2.50e+01    -  1.28e-01 2.76e-02f  1
 131r-9.8236810e+03 8.82e-03 1.04e+04  -4.4 2.29e+01    -  4.97e-02 3.75e-02f  1
 132r-9.8236812e+03 8.69e-03 1.07e+04  -4.4 2.05e+01    -  5.06e-02 1.37e-02f  1
 133r-9.8236814e+03 8.46e-03 1.05e+04  -4.4 1.74e+01    -  3.99e-02 2.65e-02f  1
 134r-9.8236815e+03 8.37e-03 1.05e+04  -4.4 1.61e+01    -  2.19e-02 9.95e-03f  1
 135r-9.8236818e+03 8.11e-03 1.18e+04  -4.4 1.31e+01    -  2.86e-01 3.00e-02f  1
 136r-9.8236822e+03 7.77e-03 1.09e+04  -4.4 1.55e+01    -  1.56e-01 3.93e-02f  1
 137r-9.8236825e+03 7.45e-03 1.00e+04  -4.4 1.52e+01    -  1.20e-01 3.95e-02f  1
 138r-9.8236826e+03 7.21e-03 8.72e+03  -4.4 2.10e+01    -  1.79e-01 3.12e-02f  1
 139r-9.8236827e+03 6.92e-03 8.48e+03  -4.4 1.73e+01    -  2.25e-02 3.81e-02f  1
iter    objective    inf_pr   inf_du lg(mu)  ||d||  lg(rg) alpha_du alpha_pr  ls
 140r-9.8236827e+03 6.62e-03 7.54e+03  -4.4 1.79e+01    -  1.37e-01 4.19e-02f  1
 141r-9.8236826e+03 6.25e-03 6.22e+03  -4.4 1.82e+01    -  2.02e-01 5.45e-02f  1
 142r-9.8236823e+03 5.86e-03 4.75e+03  -4.4 1.50e+01    -  2.61e-01 6.01e-02f  1
 143r-9.8236811e+03 5.25e-03 3.95e+03  -4.4 1.21e+01    -  4.92e-01 9.89e-02f  1
 144r-9.8236807e+03 5.19e-03 3.80e+03  -4.4 9.69e+00    -  6.11e-01 1.14e-02f  1
 145r-9.8236472e+03 2.77e-02 2.70e+03  -4.4 7.68e+00    -  3.61e-01 2.26e-01f  1
 146r-9.8236172e+03 2.80e-02 2.36e+03  -4.4 6.21e+00    -  3.69e-01 1.37e-01f  1
 147r-9.8235340e+03 3.14e-02 3.01e+03  -4.4 8.75e+00    -  4.92e-01 2.10e-01f  1
 148r-9.8232098e+03 6.52e-02 1.19e+03  -4.4 1.23e+01    -  2.72e-01 4.38e-01f  1
 149r-9.8227169e+03 3.95e-02 9.14e+02  -4.4 1.19e+01    -  6.82e-01 4.87e-01f  1
iter    objective    inf_pr   inf_du lg(mu)  ||d||  lg(rg) alpha_du alpha_pr  ls
 150r-9.8225305e+03 3.60e-02 1.02e+03  -4.4 1.72e+01    -  4.14e-01 8.94e-02f  1
 151r-9.8204549e+03 2.18e-02 1.70e+02  -4.4 1.44e+01    -  9.94e-01 8.60e-01f  1
 152r-9.8204242e+03 2.12e-02 2.85e+02  -4.4 1.75e+01    -  1.00e+00 2.82e-02h  1
 153r-9.8195538e+03 1.14e-03 1.37e-01  -4.4 4.83e+00    -  1.00e+00 1.00e+00f  1
 154r-9.8195127e+03 3.42e-04 2.82e-03  -4.4 4.08e+00    -  1.00e+00 1.00e+00h  1
 155r-9.8195190e+03 1.55e-05 1.33e-04  -4.4 8.67e-01    -  1.00e+00 1.00e+00h  1
 156 -9.8195342e+03 1.54e-05 7.32e+02  -6.0 5.72e+01    -  7.36e-01 3.21e-03f  1
 157r-9.8195342e+03 1.54e-05 9.99e+02  -4.9 0.00e+00    -  0.00e+00 3.14e-07R  4
 158r-9.8195342e+03 6.48e-06 2.15e+03  -4.9 1.02e+00    -  9.73e-01 1.00e-03f  1
 159 -9.8195342e+03 6.48e-06 1.41e+05  -6.0 2.94e+02    -  4.54e-01 1.62e-06h  2
iter    objective    inf_pr   inf_du lg(mu)  ||d||  lg(rg) alpha_du alpha_pr  ls
 160 -9.8195258e+03 2.05e-05 1.41e+05  -6.0 3.03e+03    -  3.01e-04 3.01e-04s 18
 161r-9.8195258e+03 2.05e-05 1.00e+03  -4.8 0.00e+00    -  0.00e+00 0.00e+00R  1
 162r-9.8195258e+03 6.48e-06 3.13e+03  -4.8 5.40e-01    -  9.80e-01 1.00e-03f  1
 163r-9.8194744e+03 1.56e-02 1.81e+03  -4.8 4.93e+00    -  9.15e-01 4.32e-01f  1
 164r-9.8192954e+03 1.41e-02 1.50e+03  -4.8 3.74e+01    -  5.14e-01 1.71e-01f  1
 165r-9.8181379e+03 1.42e-02 1.88e+02  -4.8 2.63e+01    -  6.47e-01 1.00e+00f  1
 166r-9.8175330e+03 2.79e-03 7.59e+01  -4.8 9.61e+00    -  4.48e-01 1.00e+00h  1
 167r-9.8173957e+03 9.96e-03 3.17e+01  -4.8 6.26e+00    -  1.00e+00 1.00e+00h  1
 168r-9.8173968e+03 2.92e-04 8.89e-01  -4.8 1.54e+00    -  1.00e+00 1.00e+00h  1
 169r-9.8174010e+03 4.84e-06 1.17e-02  -4.8 1.63e-01    -  1.00e+00 1.00e+00h  1
iter    objective    inf_pr   inf_du lg(mu)  ||d||  lg(rg) alpha_du alpha_pr  ls
 170 -9.8174105e+03 4.84e-06 1.05e+02  -6.0 8.18e+01    -  7.23e-01 1.34e-03f  1
 171r-9.8174105e+03 4.84e-06 9.99e+02  -5.3 0.00e+00    -  0.00e+00 4.75e-07R 18
 172r-9.8174104e+03 4.84e-06 9.87e+02  -5.3 1.83e+00    -  9.85e-01 1.22e-02f  1
 173 -9.8174104e+03 4.84e-06 5.77e+04  -6.0 6.37e+02    -  8.38e-02 7.27e-07h  2
 174 -9.8174104e+03 4.84e-06 6.98e+04  -6.0 2.21e+03    -  6.04e-03 8.57e-07h 16
 175r-9.8174104e+03 4.84e-06 1.00e+03  -5.3 0.00e+00    -  0.00e+00 2.54e-07R 18
 176r-9.8174103e+03 4.84e-06 9.49e+02  -5.3 9.78e-01    -  9.92e-01 4.99e-02f  1
 177 -9.8174103e+03 4.84e-06 8.35e+03  -6.0 1.60e+02    -  8.59e-02 3.65e-07f  2
 178 -9.8174103e+03 4.84e-06 2.89e+04  -6.0 2.35e+03    -  2.71e-02 1.33e-06h 14
 179r-9.8174103e+03 4.84e-06 1.00e+03  -5.3 0.00e+00    -  0.00e+00 2.71e-07R 18
iter    objective    inf_pr   inf_du lg(mu)  ||d||  lg(rg) alpha_du alpha_pr  ls
 180r-9.8174096e+03 4.83e-06 8.63e+02  -5.3 2.58e+00    -  9.82e-01 1.36e-01f  1
 181 -9.8174096e+03 4.83e-06 2.12e+04  -6.0 1.54e+02    -  7.23e-01 1.02e-06f  1
 182r-9.8174096e+03 4.83e-06 1.00e+03  -5.3 0.00e+00    -  0.00e+00 4.99e-07R 18
 183r-9.8174096e+03 4.83e-06 9.95e+02  -5.3 3.92e+00    -  9.78e-01 4.20e-03f  1
 184r-9.8174096e+03 4.83e-06 9.99e+02  -5.3 0.00e+00    -  0.00e+00 3.41e-07R  2
 185r-9.8174096e+03 4.83e-06 9.78e+02  -5.3 9.28e-01    -  9.94e-01 2.10e-02f  1
 186 -9.8174102e+03 4.83e-06 6.35e+03  -6.0 3.29e+01    -  6.87e-01 1.08e-04f  1
 187 -9.8174102e+03 4.83e-06 2.53e+04  -6.0 2.57e+03    -  2.41e-02 1.40e-06h 13
 188r-9.8174102e+03 4.83e-06 1.00e+03  -5.3 0.00e+00    -  0.00e+00 3.60e-07R 17
 189r-9.8174100e+03 4.83e-06 9.12e+02  -5.3 1.36e+00    -  9.91e-01 8.73e-02f  1
iter    objective    inf_pr   inf_du lg(mu)  ||d||  lg(rg) alpha_du alpha_pr  ls
 190 -9.8174100e+03 4.83e-06 3.55e+04  -6.0 8.55e+01    -  6.24e-01 2.32e-07h  2
 191r-9.8174100e+03 4.83e-06 1.00e+03  -5.3 0.00e+00    -  0.00e+00 2.61e-07R 19
 192r-9.8174099e+03 4.82e-06 9.55e+02  -5.3 1.50e+00    -  9.91e-01 4.40e-02f  1
 193 -9.8174099e+03 4.82e-06 2.34e+03  -6.0 4.84e+02    -  3.58e-02 2.82e-07f  2
 194r-9.8174099e+03 4.82e-06 1.00e+03  -5.3 0.00e+00    -  0.00e+00 4.25e-07R 16
 195r-9.8174091e+03 2.30e-05 8.75e+02  -5.3 2.56e+00    -  9.84e-01 1.24e-01f  1
 196r-9.8171624e+03 1.38e-01 1.31e+02  -5.3 7.42e+00    -  3.93e-01 8.93e-01f  1
 197r-9.8168437e+03 9.80e-02 2.78e+02  -5.3 9.01e+00    -  4.90e-01 1.00e+00f  1
 198r-9.8166158e+03 3.15e-02 7.93e+01  -5.3 9.17e+00    -  8.07e-01 6.81e-01h  1
 199r-9.8160464e+03 2.80e-03 1.45e+01  -5.3 1.16e+01    -  8.83e-01 1.00e+00f  1
iter    objective    inf_pr   inf_du lg(mu)  ||d||  lg(rg) alpha_du alpha_pr  ls
 200r-9.8157860e+03 2.61e-04 4.61e-02  -5.3 2.41e+00    -  1.00e+00 1.00e+00h  1
 201r-9.8157764e+03 6.35e-06 1.91e-04  -5.3 2.19e-01    -  1.00e+00 1.00e+00h  1
 202 -9.8157825e+03 6.35e-06 1.26e+02  -6.0 8.77e+02    -  1.98e-01 2.18e-04f  1
 203 -9.8157825e+03 6.35e-06 7.57e+02  -6.0 2.30e+03    -  1.41e-02 1.12e-06h 19
 204 -9.8157825e+03 6.35e-06 1.85e+04  -6.0 2.31e+03    -  3.39e-01 5.69e-07h 20
 205 -9.8156778e+03 2.05e-02 1.83e+04  -6.0 2.43e+03    -  1.30e-02 1.30e-02s 22
 206r-9.8156778e+03 2.05e-02 1.00e+03  -1.8 0.00e+00    -  0.00e+00 0.00e+00R  1
 207r-9.8156780e+03 1.41e-02 9.99e+02  -1.8 2.98e+02    -  4.88e-04 3.13e-04f  1
 208r-9.8156783e+03 5.43e-03 9.99e+02  -1.8 2.01e+02    -  7.82e-04 9.14e-04f  1
 209r-9.8156789e+03 2.56e-03 6.12e+03  -1.8 1.63e+02    -  4.79e-03 2.28e-03f  1
iter    objective    inf_pr   inf_du lg(mu)  ||d||  lg(rg) alpha_du alpha_pr  ls
 210r-9.8156801e+03 7.40e-03 3.95e+03  -1.8 1.32e+02    -  8.56e-03 1.51e-02f  1
 211r-9.8156776e+03 2.10e-02 4.76e+03  -1.8 1.18e+02    -  4.16e-02 2.91e-02f  1
 212r-9.8156434e+03 8.69e-02 6.70e+03  -1.8 1.01e+02    -  1.44e-01 9.56e-02f  1
 213r-9.8156204e+03 8.64e-02 5.43e+03  -1.8 6.99e+01    -  2.01e-04 2.69e-02f  1
 214r-9.8154032e+03 2.92e-01 1.06e+04  -1.8 6.68e+01    -  4.65e-02 2.56e-01f  1
 215r-9.8150829e+03 4.25e-01 5.54e+03  -1.8 4.24e+01    -  2.99e-01 2.47e-01f  1
 216r-9.8142541e+03 2.80e-01 3.90e+03  -1.8 3.66e+01    -  7.18e-01 3.76e-01f  1
 217r-9.8079147e+03 1.10e-01 1.64e+03  -1.8 2.77e+01    -  8.79e-01 9.57e-01f  1
 218r-9.8075400e+03 4.74e+00 3.47e+02  -1.8 4.43e+02    -  9.13e-01 1.00e+00f  1
 219r-9.8075405e+03 4.73e+00 6.57e+03  -1.8 2.24e+01  -2.0 2.44e-02 3.09e-03h  2
iter    objective    inf_pr   inf_du lg(mu)  ||d||  lg(rg) alpha_du alpha_pr  ls
 220r-9.8075968e+03 1.33e+00 1.97e+03  -1.8 1.19e-01  -0.7 1.00e+00 8.69e-01h  1
 221r-9.8048171e+03 4.47e-02 2.90e+03  -1.8 3.61e+02    -  9.74e-01 1.00e+00H  1
 222r-9.8047964e+03 7.01e-02 9.43e+02  -1.8 2.44e+00    -  1.00e+00 1.00e+00h  1
 223r-9.8047979e+03 6.65e-03 9.06e+01  -1.8 2.55e-01    -  1.00e+00 1.00e+00h  1
 224r-9.8047982e+03 6.64e-03 9.02e-01  -1.8 3.39e-02    -  1.00e+00 1.00e+00h  1
 225r-9.8067964e+03 1.43e-01 1.26e+03  -2.5 5.43e+01    -  4.89e-01 4.05e-01f  1
 226r-9.8073599e+03 4.61e-01 1.66e+03  -2.5 1.38e+01    -  4.06e-01 3.50e-01f  1
 227r-9.8074216e+03 7.71e-01 6.67e+03  -2.5 2.35e-01  -0.2 7.70e-01 2.81e-01f  1
 228r-9.8076548e+03 1.06e+00 2.69e+03  -2.5 6.90e-01  -0.7 1.65e-01 4.69e-01f  1
 229r-9.8081127e+03 6.20e-01 1.63e+03  -2.5 1.23e+00  -1.2 7.50e-01 5.45e-01f  1
iter    objective    inf_pr   inf_du lg(mu)  ||d||  lg(rg) alpha_du alpha_pr  ls
 230r-9.8082039e+03 1.06e+00 1.55e+03  -2.5 1.90e+01    -  7.57e-02 5.75e-02f  1
 231r-9.8090540e+03 3.89e-01 3.08e+02  -2.5 1.78e+00  -1.7 1.00e+00 1.00e+00f  1
 232r-9.8091429e+03 3.12e-01 7.74e+02  -2.5 1.29e+01    -  1.00e+00 2.23e-01f  1
 233r-9.8092323e+03 2.18e-01 6.28e+02  -2.5 1.01e+01    -  1.00e+00 3.43e-01h  1
 234r-9.8094059e+03 1.33e-01 1.34e+02  -2.5 6.48e+00    -  1.00e+00 1.00e+00f  1
 235r-9.8094112e+03 5.73e-03 1.67e+01  -2.5 4.65e-01    -  1.00e+00 1.00e+00h  1
 236r-9.8094115e+03 4.53e-04 7.04e-02  -2.5 3.64e-02    -  1.00e+00 1.00e+00h  1
 237r-9.8107641e+03 3.97e-02 9.59e+01  -3.2 2.88e+01    -  4.23e-01 4.03e-01f  1
 238r-9.8112150e+03 3.19e-02 5.04e+01  -3.2 6.81e+00    -  3.74e-01 3.97e-01f  1
 239r-9.8114184e+03 2.55e-02 2.52e+03  -3.2 4.88e+00    -  7.87e-01 2.29e-01f  1
iter    objective    inf_pr   inf_du lg(mu)  ||d||  lg(rg) alpha_du alpha_pr  ls
 240r-9.8116511e+03 1.91e-02 4.32e+03  -3.2 5.93e+00    -  1.00e+00 2.91e-01f  1
 241r-9.8120436e+03 7.66e-03 2.22e+03  -3.2 5.84e+00    -  1.00e+00 6.47e-01f  1
 242r-9.8123021e+03 2.05e-03 1.19e+01  -3.2 3.89e+00    -  1.00e+00 1.00e+00f  1
 243r-9.8123023e+03 6.37e-05 6.95e-02  -3.2 7.30e-01    -  1.00e+00 1.00e+00h  1
 244r-9.8123022e+03 7.27e-05 1.72e-06  -3.2 4.20e-03    -  1.00e+00 1.00e+00h  1
 245r-9.8129654e+03 5.99e-03 2.98e+03  -6.3 2.24e+01    -  4.63e-01 2.62e-01f  1
 246r-9.8131047e+03 1.46e-02 3.13e+03  -6.3 7.45e+01    -  3.03e-01 2.48e-01f  1
 247r-9.8130876e+03 1.68e-02 9.71e+03  -6.3 4.60e+01    -  4.71e-01 7.05e-02f  1
 248r-9.8130089e+03 2.77e-02 8.14e+03  -6.3 6.48e+01    -  3.72e-01 2.81e-01f  1
 249r-9.8131594e+03 4.79e-02 9.72e+03  -6.3 2.89e+02    -  2.88e-01 1.57e-01f  1
iter    objective    inf_pr   inf_du lg(mu)  ||d||  lg(rg) alpha_du alpha_pr  ls
 250r-9.8129611e+03 3.28e-02 9.48e+03  -6.3 5.23e+01    -  4.52e-01 3.41e-01f  1
 251r-9.8123269e+03 6.15e-02 1.56e+03  -6.3 1.18e+02    -  1.05e-01 4.63e-01f  1
 252r-9.8125014e+03 4.23e-02 4.72e+03  -6.3 3.97e+01    -  7.25e-01 3.62e-01f  1
 253r-9.8129230e+03 2.88e-02 5.09e+03  -6.3 1.50e+01    -  8.18e-01 3.20e-01f  1
 254r-9.8140568e+03 9.30e-03 1.50e+03  -6.3 1.18e+01    -  8.29e-01 7.19e-01f  1
 255r-9.8145782e+03 5.75e-03 6.30e+02  -6.3 1.67e+01    -  9.82e-01 6.14e-01f  1
 256r-9.8148915e+03 2.50e-03 1.69e+02  -6.3 9.46e+00    -  1.00e+00 7.40e-01f  1
 257r-9.8150212e+03 2.07e-04 3.50e-02  -6.3 3.17e+00    -  1.00e+00 1.00e+00f  1
 258r-9.8150225e+03 6.16e-06 1.24e-04  -6.3 4.29e-02    -  1.00e+00 1.00e+00h  1
 259 -9.8150241e+03 6.16e-06 1.08e+02  -6.0 1.66e+03    -  7.40e-02 4.16e-05f  1
iter    objective    inf_pr   inf_du lg(mu)  ||d||  lg(rg) alpha_du alpha_pr  ls
 260 -9.8150241e+03 6.16e-06 3.54e+03  -6.0 2.44e+03    -  8.73e-02 1.06e-06h 20
 261r-9.8150241e+03 6.16e-06 1.00e+03  -5.2 0.00e+00    -  0.00e+00 2.59e-07R 22
 262r-9.8150237e+03 6.16e-06 9.28e+02  -5.2 4.96e-01    -  2.21e-01 7.09e-02f  1
 263r-9.8150202e+03 6.16e-06 4.85e+02  -5.2 7.02e-01    -  4.24e-01 4.78e-01f  1
 264r-9.8150093e+03 2.55e-05 3.03e+02  -5.2 1.05e+00    -  5.73e-01 1.00e+00f  1
 265r-9.8149884e+03 5.82e-05 2.42e-01  -5.2 1.68e+00    -  9.99e-01 1.00e+00h  1
 266r-9.8141994e+03 5.73e-04 1.05e-02  -5.2 5.26e+00    -  1.00e+00 1.00e+00h  1
 267r-9.8141020e+03 2.08e-05 4.05e-04  -5.2 1.00e+00    -  1.00e+00 1.00e+00h  1
 268r-9.8141048e+03 6.15e-06 1.03e-06  -5.2 8.00e-02    -  1.00e+00 1.00e+00h  1
 269r-9.8145282e+03 9.28e-05 3.11e+02  -7.0 3.20e+00    -  9.18e-01 6.62e-01f  1
iter    objective    inf_pr   inf_du lg(mu)  ||d||  lg(rg) alpha_du alpha_pr  ls
 270r-9.8142040e+03 3.97e-02 1.49e+02  -7.0 7.96e+01    -  6.67e-01 5.50e-01f  1
 271r-9.8140766e+03 2.54e-02 1.79e+02  -7.0 3.54e+01    -  8.83e-01 5.86e-01h  1
 272r-9.8140165e+03 7.79e-03 1.19e+02  -7.0 1.46e+01    -  1.00e+00 8.07e-01h  1
 273r-9.8140055e+03 1.63e-04 3.98e-03  -7.0 2.79e+00    -  1.00e+00 1.00e+00f  1
 274r-9.8140056e+03 5.88e-06 1.11e-05  -7.0 9.05e-03    -  1.00e+00 1.00e+00h  1
 275 -9.8140059e+03 5.88e-06 1.07e+02  -6.0 1.94e+03    -  9.35e-02 7.14e-06f  1
 276 -9.8140059e+03 5.88e-06 1.10e+04  -6.0 2.48e+03    -  3.00e-01 2.04e-06h 19
 277r-9.8140059e+03 5.88e-06 1.00e+03  -5.2 0.00e+00    -  0.00e+00 4.49e-07R 21
 278r-9.8140026e+03 5.88e-06 7.76e+02  -5.2 7.21e-01    -  2.23e-01 3.95e-01f  1
 279r-9.8139974e+03 5.88e-06 4.37e+02  -5.2 8.73e-01    -  4.36e-01 5.18e-01f  1
iter    objective    inf_pr   inf_du lg(mu)  ||d||  lg(rg) alpha_du alpha_pr  ls
 280r-9.8139823e+03 3.61e-05 3.34e+02  -5.2 1.32e+00    -  6.76e-01 1.00e+00f  1
 281r-9.8139533e+03 1.17e-04 1.36e+02  -5.2 2.37e+00    -  7.57e-01 1.00e+00h  1
 282r-9.8139088e+03 1.42e-04 1.77e-01  -5.2 2.61e+00    -  9.98e-01 1.00e+00h  1
 283r-9.8130652e+03 2.51e-04 5.13e-03  -5.2 3.49e+00    -  1.00e+00 1.00e+00h  1
 284r-9.8130696e+03 5.88e-06 3.53e-05  -5.2 2.63e-01    -  1.00e+00 1.00e+00h  1
 285r-9.8134944e+03 9.39e-05 2.88e+02  -6.5 3.04e+00    -  9.55e-01 6.98e-01f  1
 286r-9.8133087e+03 1.25e-02 1.35e+02  -6.5 3.85e+01    -  1.00e+00 6.36e-01f  1
 287r-9.8132433e+03 4.03e-03 3.03e-02  -6.5 1.39e+01    -  1.00e+00 1.00e+00f  1
 288r-9.8132468e+03 5.74e-06 4.26e-04  -6.5 7.74e-02    -  1.00e+00 1.00e+00h  1
 289r-9.8132467e+03 5.74e-06 9.13e-06  -6.5 4.93e-03    -  1.00e+00 1.00e+00h  1
iter    objective    inf_pr   inf_du lg(mu)  ||d||  lg(rg) alpha_du alpha_pr  ls
 290r-9.8133758e+03 2.32e-05 2.49e+01  -7.0 1.20e+00    -  1.00e+00 8.87e-01f  1
 291r-9.8129291e+03 2.83e-02 2.31e-01  -7.0 3.68e+01    -  1.00e+00 1.00e+00f  1
 292r-9.8129290e+03 5.63e-06 9.54e-05  -7.0 3.10e-02    -  1.00e+00 1.00e+00h  1
 293 -9.8129294e+03 5.63e-06 1.05e+02  -6.0 2.95e+03    -  8.57e-03 5.91e-06f  1
 294r-9.8129294e+03 5.63e-06 9.99e+02  -5.2 0.00e+00    -  0.00e+00 4.56e-07R 21
 295r-9.8129261e+03 5.63e-06 5.83e+02  -5.2 7.02e-01    -  2.30e-01 4.17e-01f  1
 296r-9.8129211e+03 5.63e-06 2.95e+02  -5.2 8.56e-01    -  4.48e-01 5.33e-01f  1
 297r-9.8129066e+03 3.61e-05 3.21e+02  -5.2 1.32e+00    -  6.87e-01 1.00e+00f  1
 298r-9.8128785e+03 1.21e-04 1.33e+02  -5.2 2.41e+00    -  7.58e-01 1.00e+00h  1
 299r-9.8128357e+03 1.37e-04 1.79e-01  -5.2 2.56e+00    -  9.98e-01 1.00e+00h  1
iter    objective    inf_pr   inf_du lg(mu)  ||d||  lg(rg) alpha_du alpha_pr  ls
 300r-9.8120194e+03 2.85e-04 5.05e-03  -5.2 3.72e+00    -  1.00e+00 1.00e+00h  1
 301r-9.8120253e+03 5.63e-06 3.58e-05  -5.2 2.37e-01    -  1.00e+00 1.00e+00h  1
 302r-9.8124446e+03 1.14e-04 2.68e+02  -6.6 3.08e+00    -  9.58e-01 7.09e-01f  1
 303r-9.8122639e+03 1.15e-02 1.46e+02  -6.6 3.79e+01    -  1.00e+00 6.19e-01f  1
 304r-9.8121947e+03 4.33e-03 3.20e-02  -6.6 1.44e+01    -  1.00e+00 1.00e+00f  1
 305r-9.8122095e+03 5.34e-05 1.33e-03  -6.6 1.49e+00    -  1.00e+00 1.00e+00h  1
 306r-9.8122065e+03 5.50e-06 7.90e-05  -6.6 3.79e-01    -  1.00e+00 1.00e+00h  1
Restoration phase converged to a feasible point that is
unacceptable to the filter for the original problem.
Restoration phase in the restoration phase failed.

Number of Iterations....: 306

                                   (scaled)                 (unscaled)
Objective...............:  -9.8122063088676823e+03   -9.8122063088676823e+03
Dual infeasibility......:   1.0000000041372394e+00    1.0000000041372394e+00
Constraint violation....:   5.4963179433376610e-06    5.4963179433376610e-06
Complementarity.........:   2.7422250182022271e-07    2.7422250182022271e-07
Overall NLP error.......:   1.0000000041372394e+00    1.0000000041372394e+00


Number of objective function evaluations             = 1377
Number of objective gradient evaluations             = 167
Number of equality constraint evaluations            = 1377
Number of inequality constraint evaluations          = 1377
Number of equality constraint Jacobian evaluations   = 334
Number of inequality constraint Jacobian evaluations = 334
Number of Lagrangian Hessian evaluations             = 307
Total CPU secs in IPOPT (w/o function evaluations)   =    249.586
Total CPU secs in NLP function evaluations           =     14.858

EXIT: Restoration Failed!
